(set-info :status sat)
(declare-const symbol_745 (_ BitVec 32))
(declare-const symbol_577 (_ BitVec 32))
(declare-const symbol_140 (_ BitVec 32))
(declare-const symbol_381 (_ BitVec 32))
(declare-const symbol_422 (_ BitVec 32))
(declare-const symbol_393 (_ BitVec 32))
(declare-const symbol_222 (_ BitVec 32))
(declare-const symbol_25 (_ BitVec 32))
(declare-const symbol_197 (_ BitVec 32))
(declare-const symbol_739 (_ BitVec 32))
(declare-const symbol_366 (_ BitVec 32))
(declare-const symbol_293 (_ BitVec 32))
(declare-const symbol_338 (_ BitVec 32))
(declare-const symbol_813 (_ BitVec 32))
(declare-const symbol_91 (_ BitVec 32))
(declare-const symbol_58 (_ BitVec 32))
(declare-const symbol_193 (_ BitVec 32))
(declare-const symbol_115 (_ BitVec 32))
(declare-const symbol_247 (_ BitVec 32))
(declare-const symbol_224 (_ BitVec 32))
(declare-const symbol_178 (_ BitVec 32))
(declare-const symbol_54 (_ BitVec 32))
(declare-const symbol_272 (_ BitVec 32))
(declare-const symbol_413 (_ BitVec 32))
(declare-const symbol_167 (_ BitVec 32))
(declare-const symbol_289 (_ BitVec 32))
(declare-const symbol_254 (_ BitVec 32))
(declare-const symbol_171 (_ BitVec 32))
(declare-const symbol_828 (_ BitVec 32))
(declare-const symbol_757 (_ BitVec 32))
(declare-const symbol_662 (_ BitVec 32))
(declare-const symbol_241 (_ BitVec 32))
(declare-const symbol_623 (_ BitVec 32))
(declare-const symbol_621 (_ BitVec 32))
(declare-const symbol_593 (_ BitVec 32))
(declare-const symbol_29 (_ BitVec 32))
(declare-const symbol_23 (_ BitVec 32))
(declare-const symbol_15 (_ BitVec 32))
(declare-const symbol_729 (_ BitVec 32))
(declare-const symbol_485 (_ BitVec 32))
(declare-const symbol_251 (_ BitVec 32))
(declare-const symbol_103 (_ BitVec 32))
(declare-const symbol_550 (_ BitVec 32))
(declare-const symbol_377 (_ BitVec 32))
(declare-const symbol_231 (_ BitVec 32))
(declare-const symbol_531 (_ BitVec 32))
(declare-const symbol_407 (_ BitVec 32))
(declare-const symbol_704 (_ BitVec 32))
(declare-const symbol_11 (_ BitVec 32))
(declare-const symbol_737 (_ BitVec 32))
(declare-const symbol_465 (_ BitVec 32))
(declare-const symbol_95 (_ BitVec 32))
(declare-const symbol_608 (_ BitVec 32))
(declare-const symbol_428 (_ BitVec 32))
(declare-const symbol_759 (_ BitVec 32))
(declare-const symbol_370 (_ BitVec 32))
(declare-const symbol_264 (_ BitVec 32))
(declare-const symbol_682 (_ BitVec 32))
(declare-const symbol_441 (_ BitVec 32))
(declare-const symbol_418 (_ BitVec 32))
(declare-const symbol_357 (_ BitVec 32))
(declare-const symbol_481 (_ BitVec 32))
(declare-const symbol_399 (_ BitVec 32))
(declare-const symbol_62 (_ BitVec 32))
(declare-const symbol_493 (_ BitVec 32))
(declare-const symbol_787 (_ BitVec 32))
(declare-const symbol_507 (_ BitVec 32))
(declare-const symbol_274 (_ BitVec 32))
(declare-const symbol_66 (_ BitVec 32))
(declare-const symbol_765 (_ BitVec 32))
(declare-const symbol_463 (_ BitVec 32))
(declare-const symbol_278 (_ BitVec 32))
(declare-const symbol_235 (_ BitVec 32))
(declare-const symbol_180 (_ BitVec 32))
(declare-const symbol_136 (_ BitVec 32))
(declare-const symbol_455 (_ BitVec 32))
(declare-const symbol_316 (_ BitVec 32))
(declare-const symbol_299 (_ BitVec 32))
(declare-const symbol_2 (_ BitVec 32))
(declare-const symbol_101 (_ BitVec 32))
(declare-const symbol_585 (_ BitVec 32))
(declare-const symbol_801 (_ BitVec 32))
(declare-const symbol_199 (_ BitVec 32))
(declare-const symbol_641 (_ BitVec 32))
(declare-const symbol_805 (_ BitVec 32))
(declare-const symbol_688 (_ BitVec 32))
(declare-const symbol_415 (_ BitVec 32))
(declare-const symbol_340 (_ BitVec 32))
(declare-const symbol_477 (_ BitVec 32))
(declare-const symbol_459 (_ BitVec 32))
(declare-const symbol_722 (_ BitVec 32))
(declare-const symbol_426 (_ BitVec 32))
(declare-const symbol_395 (_ BitVec 32))
(declare-const symbol_215 (_ BitVec 32))
(declare-const symbol_5 (_ BitVec 32))
(declare-const symbol_203 (_ BitVec 32))
(declare-const symbol_55 (_ BitVec 32))
(declare-const symbol_627 (_ BitVec 32))
(declare-const symbol_741 (_ BitVec 32))
(declare-const symbol_597 (_ BitVec 32))
(declare-const symbol_304 (_ BitVec 32))
(declare-const symbol_692 (_ BitVec 32))
(declare-const symbol_708 (_ BitVec 32))
(declare-const symbol_227 (_ BitVec 32))
(declare-const symbol_175 (_ BitVec 32))
(declare-const symbol_134 (_ BitVec 32))
(declare-const symbol_579 (_ BitVec 32))
(declare-const symbol_616 (_ BitVec 32))
(declare-const symbol_535 (_ BitVec 32))
(declare-const symbol_461 (_ BitVec 32))
(declare-const symbol_372 (_ BitVec 32))
(declare-const symbol_109 (_ BitVec 32))
(declare-const symbol_731 (_ BitVec 32))
(declare-const symbol_295 (_ BitVec 32))
(declare-const symbol_557 (_ BitVec 32))
(declare-const symbol_314 (_ BitVec 32))
(declare-const symbol_797 (_ BitVec 32))
(declare-const symbol_49 (_ BitVec 32))
(declare-const symbol_302 (_ BitVec 32))
(declare-const symbol_716 (_ BitVec 32))
(declare-const symbol_538 (_ BitVec 32))
(declare-const symbol_499 (_ BitVec 32))
(declare-const symbol_85 (_ BitVec 32))
(declare-const symbol_700 (_ BitVec 32))
(declare-const symbol_635 (_ BitVec 32))
(declare-const symbol_514 (_ BitVec 32))
(declare-const symbol_220 (_ BitVec 32))
(declare-const symbol_4 (_ BitVec 32))
(declare-const symbol_811 (_ BitVec 32))
(declare-const symbol_424 (_ BitVec 32))
(declare-const symbol_310 (_ BitVec 32))
(declare-const symbol_666 (_ BitVec 32))
(declare-const symbol_237 (_ BitVec 32))
(declare-const symbol_505 (_ BitVec 32))
(declare-const symbol_387 (_ BitVec 32))
(declare-const symbol_451 (_ BitVec 32))
(declare-const symbol_291 (_ BitVec 32))
(declare-const symbol_9 (_ BitVec 32))
(declare-const symbol_770 (_ BitVec 32))
(declare-const symbol_599 (_ BitVec 32))
(declare-const symbol_583 (_ BitVec 32))
(declare-const symbol_561 (_ BitVec 32))
(declare-const symbol_368 (_ BitVec 32))
(declare-const symbol_544 (_ BitVec 32))
(declare-const symbol_306 (_ BitVec 32))
(declare-const symbol_161 (_ BitVec 32))
(declare-const symbol_749 (_ BitVec 32))
(declare-const symbol_565 (_ BitVec 32))
(declare-const symbol_473 (_ BitVec 32))
(declare-const symbol_743 (_ BitVec 32))
(declare-const symbol_123 (_ BitVec 32))
(declare-const symbol_631 (_ BitVec 32))
(declare-const symbol_145 (_ BitVec 32))
(declare-const symbol_126 (_ BitVec 32))
(declare-const symbol_818 (_ BitVec 32))
(declare-const symbol_280 (_ BitVec 32))
(declare-const symbol_803 (_ BitVec 32))
(declare-const symbol_733 (_ BitVec 32))
(declare-const symbol_72 (_ BitVec 32))
(declare-const symbol_546 (_ BitVec 32))
(declare-const symbol_191 (_ BitVec 32))
(declare-const symbol_799 (_ BitVec 32))
(declare-const symbol_173 (_ BitVec 32))
(declare-const symbol_97 (_ BitVec 32))
(declare-const symbol_591 (_ BitVec 32))
(declare-const symbol_258 (_ BitVec 32))
(declare-const symbol_785 (_ BitVec 32))
(declare-const symbol_147 (_ BitVec 32))
(declare-const symbol_266 (_ BitVec 32))
(declare-const symbol_469 (_ BitVec 32))
(declare-const symbol_111 (_ BitVec 32))
(declare-const symbol_88 (_ BitVec 32))
(declare-const symbol_684 (_ BitVec 32))
(declare-const symbol_612 (_ BitVec 32))
(declare-const symbol_551 (_ BitVec 32))
(declare-const symbol_142 (_ BitVec 32))
(declare-const symbol_606 (_ BitVec 32))
(declare-const symbol_575 (_ BitVec 32))
(declare-const symbol_124 (_ BitVec 32))
(declare-const symbol_13 (_ BitVec 32))
(declare-const symbol_694 (_ BitVec 32))
(declare-const symbol_676 (_ BitVec 32))
(declare-const symbol_643 (_ BitVec 32))
(declare-const symbol_548 (_ BitVec 32))
(declare-const symbol_276 (_ BitVec 32))
(declare-const symbol_768 (_ BitVec 32))
(declare-const symbol_649 (_ BitVec 32))
(declare-const symbol_826 (_ BitVec 32))
(declare-const symbol_391 (_ BitVec 32))
(declare-const symbol_268 (_ BitVec 32))
(declare-const symbol_138 (_ BitVec 32))
(declare-const symbol_195 (_ BitVec 32))
(declare-const symbol_245 (_ BitVec 32))
(declare-const symbol_81 (_ BitVec 32))
(declare-const symbol_637 (_ BitVec 32))
(declare-const symbol_201 (_ BitVec 32))
(declare-const symbol_48 (_ BitVec 32))
(declare-const symbol_569 (_ BitVec 32))
(declare-const symbol_71 (_ BitVec 32))
(declare-const symbol_824 (_ BitVec 32))
(declare-const symbol_420 (_ BitVec 32))
(declare-const symbol_312 (_ BitVec 32))
(declare-const symbol_714 (_ BitVec 32))
(declare-const symbol_483 (_ BitVec 32))
(declare-const symbol_475 (_ BitVec 32))
(declare-const symbol_35 (_ BitVec 32))
(declare-const symbol_226 (_ BitVec 32))
(declare-const symbol_619 (_ BitVec 32))
(declare-const symbol_672 (_ BitVec 32))
(declare-const symbol_614 (_ BitVec 32))
(declare-const symbol_401 (_ BitVec 32))
(declare-const symbol_17 (_ BitVec 32))
(declare-const symbol_706 (_ BitVec 32))
(declare-const symbol_751 (_ BitVec 32))
(declare-const symbol_447 (_ BitVec 32))
(declare-const symbol_432 (_ BitVec 32))
(declare-const symbol_625 (_ BitVec 32))
(declare-const symbol_503 (_ BitVec 32))
(declare-const symbol_471 (_ BitVec 32))
(declare-const symbol_783 (_ BitVec 32))
(declare-const symbol_553 (_ BitVec 32))
(declare-const symbol_130 (_ BitVec 32))
(declare-const symbol_610 (_ BitVec 32))
(declare-const symbol_491 (_ BitVec 32))
(declare-const symbol_243 (_ BitVec 32))
(declare-const symbol_128 (_ BitVec 32))
(declare-const symbol_77 (_ BitVec 32))
(declare-const symbol_205 (_ BitVec 32))
(declare-const symbol_735 (_ BitVec 32))
(declare-const symbol_327 (_ BitVec 32))
(declare-const symbol_284 (_ BitVec 32))
(declare-const symbol_696 (_ BitVec 32))
(declare-const symbol_647 (_ BitVec 32))
(declare-const symbol_352 (_ BitVec 32))
(declare-const symbol_664 (_ BitVec 32))
(declare-const symbol_567 (_ BitVec 32))
(declare-const symbol_443 (_ BitVec 32))
(declare-const symbol_184 (_ BitVec 32))
(declare-const symbol_489 (_ BitVec 32))
(declare-const symbol_348 (_ BitVec 32))
(declare-const symbol_726 (_ BitVec 32))
(declare-const symbol_529 (_ BitVec 32))
(declare-const symbol_698 (_ BitVec 32))
(declare-const symbol_229 (_ BitVec 32))
(declare-const symbol_660 (_ BitVec 32))
(declare-const symbol_405 (_ BitVec 32))
(declare-const symbol_329 (_ BitVec 32))
(declare-const symbol_710 (_ BitVec 32))
(declare-const symbol_516 (_ BitVec 32))
(declare-const symbol_815 (_ BitVec 32))
(declare-const symbol_747 (_ BitVec 32))
(declare-const symbol_540 (_ BitVec 32))
(declare-const symbol_375 (_ BitVec 32))
(declare-const symbol_807 (_ BitVec 32))
(declare-const symbol_117 (_ BitVec 32))
(declare-const symbol_46 (_ BitVec 32))
(declare-const symbol_385 (_ BitVec 32))
(declare-const symbol_820 (_ BitVec 32))
(declare-const symbol_467 (_ BitVec 32))
(declare-const symbol_74 (_ BitVec 32))
(declare-const symbol_517 (_ BitVec 32))
(declare-const symbol_439 (_ BitVec 32))
(declare-const symbol_79 (_ BitVec 32))
(declare-const symbol_403 (_ BitVec 32))
(declare-const symbol_322 (_ BitVec 32))
(declare-const symbol_233 (_ BitVec 32))
(declare-const symbol_604 (_ BitVec 32))
(declare-const symbol_336 (_ BitVec 32))
(declare-const symbol_297 (_ BitVec 32))
(declare-const symbol_589 (_ BitVec 32))
(declare-const symbol_542 (_ BitVec 32))
(declare-const symbol_449 (_ BitVec 32))
(declare-const symbol_358 (_ BitVec 32))
(declare-const symbol_287 (_ BitVec 32))
(declare-const symbol_344 (_ BitVec 32))
(declare-const symbol_838 (_ BitVec 32))
(declare-const symbol_654 (_ BitVec 32))
(declare-const symbol_526 (_ BitVec 32))
(declare-const symbol_840 (_ BitVec 32))
(declare-const symbol_318 (_ BitVec 32))
(declare-const symbol_21 (_ BitVec 32))
(declare-const symbol_19 (_ BitVec 32))
(declare-const symbol_639 (_ BitVec 32))
(declare-const symbol_43 (_ BitVec 32))
(declare-const symbol_761 (_ BitVec 32))
(declare-const symbol_629 (_ BitVec 32))
(declare-const symbol_218 (_ BitVec 32))
(declare-const symbol_93 (_ BitVec 32))
(declare-const symbol_342 (_ BitVec 32))
(declare-const symbol_151 (_ BitVec 32))
(declare-const symbol_830 (_ BitVec 32))
(declare-const symbol_617 (_ BitVec 32))
(declare-const symbol_31 (_ BitVec 32))
(declare-const symbol_718 (_ BitVec 32))
(declare-const symbol_239 (_ BitVec 32))
(declare-const symbol_7 (_ BitVec 32))
(declare-const symbol_670 (_ BitVec 32))
(declare-const symbol_645 (_ BitVec 32))
(declare-const symbol_601 (_ BitVec 32))
(declare-const symbol_587 (_ BitVec 32))
(declare-const symbol_320 (_ BitVec 32))
(declare-const symbol_774 (_ BitVec 32))
(declare-const symbol_362 (_ BitVec 32))
(declare-const symbol_702 (_ BitVec 32))
(declare-const symbol_678 (_ BitVec 32))
(declare-const symbol_595 (_ BitVec 32))
(declare-const symbol_159 (_ BitVec 32))
(declare-const symbol_119 (_ BitVec 32))
(declare-const symbol_360 (_ BitVec 32))
(declare-const symbol_836 (_ BitVec 32))
(declare-const symbol_781 (_ BitVec 32))
(declare-const symbol_633 (_ BitVec 32))
(declare-const symbol_571 (_ BitVec 32))
(declare-const symbol_434 (_ BitVec 32))
(declare-const symbol_379 (_ BitVec 32))
(declare-const symbol_155 (_ BitVec 32))
(declare-const symbol_68 (_ BitVec 32))
(declare-const symbol_346 (_ BitVec 32))
(declare-const symbol_163 (_ BitVec 32))
(declare-const symbol_728 (_ BitVec 32))
(declare-const symbol_523 (_ BitVec 32))
(declare-const symbol_260 (_ BitVec 32))
(declare-const symbol_330 (_ BitVec 32))
(declare-const symbol_144 (_ BitVec 32))
(declare-const symbol_27 (_ BitVec 32))
(declare-const symbol_655 (_ BitVec 32))
(declare-const symbol_822 (_ BitVec 32))
(declare-const symbol_383 (_ BitVec 32))
(declare-const symbol_779 (_ BitVec 32))
(declare-const symbol_559 (_ BitVec 32))
(declare-const symbol_153 (_ BitVec 32))
(declare-const symbol_149 (_ BitVec 32))
(declare-const symbol_755 (_ BitVec 32))
(declare-const symbol_527 (_ BitVec 32))
(declare-const symbol_252 (_ BitVec 32))
(declare-const symbol_33 (_ BitVec 32))
(declare-const symbol_772 (_ BitVec 32))
(declare-const symbol_457 (_ BitVec 32))
(declare-const symbol_209 (_ BitVec 32))
(declare-const symbol_132 (_ BitVec 32))
(declare-const symbol_113 (_ BitVec 32))
(declare-const symbol_777 (_ BitVec 32))
(declare-const symbol_334 (_ BitVec 32))
(declare-const symbol_832 (_ BitVec 32))
(declare-const symbol_182 (_ BitVec 32))
(declare-const symbol_573 (_ BitVec 32))
(declare-const symbol_409 (_ BitVec 32))
(declare-const symbol_157 (_ BitVec 32))
(declare-const symbol_435 (_ BitVec 32))
(declare-const symbol_374 (_ BitVec 32))
(declare-const symbol_658 (_ BitVec 32))
(declare-const symbol_724 (_ BitVec 32))
(declare-const symbol_511 (_ BitVec 32))
(declare-const symbol_411 (_ BitVec 32))
(declare-const symbol_809 (_ BitVec 32))
(declare-const symbol_775 (_ BitVec 32))
(declare-const symbol_674 (_ BitVec 32))
(declare-const symbol_249 (_ BitVec 32))
(declare-const symbol_0 (_ BitVec 32))
(declare-const symbol_487 (_ BitVec 32))
(declare-const symbol_753 (_ BitVec 32))
(declare-const symbol_712 (_ BitVec 32))
(declare-const symbol_521 (_ BitVec 32))
(declare-const symbol_791 (_ BitVec 32))
(declare-const symbol_188 (_ BitVec 32))
(declare-const symbol_64 (_ BitVec 32))
(declare-const symbol_501 (_ BitVec 32))
(declare-const symbol_509 (_ BitVec 32))
(declare-const symbol_270 (_ BitVec 32))
(declare-const symbol_816 (_ BitVec 32))
(declare-const symbol_834 (_ BitVec 32))
(declare-const symbol_651 (_ BitVec 32))
(declare-const symbol_581 (_ BitVec 32))
(declare-const symbol_38 (_ BitVec 32))
(declare-const symbol_479 (_ BitVec 32))
(declare-const symbol_325 (_ BitVec 32))
(declare-const symbol_262 (_ BitVec 32))
(declare-const symbol_105 (_ BitVec 32))
(declare-const symbol_795 (_ BitVec 32))
(declare-const symbol_453 (_ BitVec 32))
(declare-const symbol_282 (_ BitVec 32))
(declare-const symbol_207 (_ BitVec 32))
(declare-const symbol_41 (_ BitVec 32))
(declare-const symbol_83 (_ BitVec 32))
(declare-const symbol_686 (_ BitVec 32))
(declare-const symbol_793 (_ BitVec 32))
(declare-const symbol_497 (_ BitVec 32))
(declare-const symbol_763 (_ BitVec 32))
(declare-const symbol_690 (_ BitVec 32))
(declare-const symbol_308 (_ BitVec 32))
(declare-const symbol_668 (_ BitVec 32))
(declare-const symbol_555 (_ BitVec 32))
(declare-const symbol_430 (_ BitVec 32))
(declare-const symbol_211 (_ BitVec 32))
(declare-const symbol_533 (_ BitVec 32))
(declare-const symbol_445 (_ BitVec 32))
(declare-const symbol_169 (_ BitVec 32))
(declare-const symbol_37 (_ BitVec 32))
(declare-const symbol_364 (_ BitVec 32))
(declare-const symbol_397 (_ BitVec 32))
(declare-const symbol_99 (_ BitVec 32))
(declare-const symbol_495 (_ BitVec 32))
(declare-const symbol_107 (_ BitVec 32))
(declare-const symbol_51 (_ BitVec 32))
(declare-const symbol_256 (_ BitVec 32))
(declare-const symbol_789 (_ BitVec 32))
(declare-const symbol_389 (_ BitVec 32))
(declare-const symbol_217 (_ BitVec 32))
(declare-const symbol_186 (_ BitVec 32))
(declare-const symbol_121 (_ BitVec 32))
(declare-const symbol_59 (_ BitVec 32))
(declare-const symbol_165 (_ BitVec 32))
(declare-const symbol_680 (_ BitVec 32))
(declare-const symbol_720 (_ BitVec 32))
(declare-const symbol_437 (_ BitVec 32))
(declare-const symbol_332 (_ BitVec 32))
(declare-const symbol_563 (_ BitVec 32))
(declare-const symbol_87 (_ BitVec 32))
(declare-const symbol_519 (_ BitVec 32))
(declare-const symbol_355 (_ BitVec 32))
(declare-const symbol_351 (_ BitVec 32))
(declare-const symbol_213 (_ BitVec 32))
(assert (not (= symbol_840 (_ bv2 32))))
(assert (not (not (= symbol_840 (_ bv1 32)))))
(assert (not (not (= symbol_838 (_ bv1 32)))))
(assert (not (not (= symbol_836 (_ bv1 32)))))
(assert (not (not (= symbol_834 (_ bv1 32)))))
(assert (not (not (= symbol_832 (_ bv1 32)))))
(assert (not (not (= symbol_830 (_ bv1 32)))))
(assert (not (not (= symbol_828 (_ bv1 32)))))
(assert (not (not (= symbol_826 (_ bv1 32)))))
(assert (not (not (= symbol_824 (_ bv1 32)))))
(assert (not (not (= symbol_822 (_ bv1 32)))))
(assert (not (not (= symbol_820 (_ bv1 32)))))
(assert (not (not (= symbol_818 (_ bv1 32)))))
(assert (not (not (= symbol_816 (_ bv1 32)))))
(assert (not (not (= symbol_815 (_ bv1 32)))))
(assert (not (not (= symbol_813 (_ bv1 32)))))
(assert (not (not (= symbol_811 (_ bv1 32)))))
(assert (not (not (= symbol_809 (_ bv1 32)))))
(assert (not (not (= symbol_807 (_ bv1 32)))))
(assert (not (not (= symbol_805 (_ bv1 32)))))
(assert (not (not (= symbol_803 (_ bv1 32)))))
(assert (not (not (= symbol_801 (_ bv1 32)))))
(assert (not (not (= symbol_799 (_ bv1 32)))))
(assert (not (not (= symbol_797 (_ bv1 32)))))
(assert (not (not (= symbol_795 (_ bv1 32)))))
(assert (not (not (= symbol_793 (_ bv1 32)))))
(assert (not (not (= symbol_791 (_ bv1 32)))))
(assert (not (not (= symbol_789 (_ bv1 32)))))
(assert (not (not (= symbol_787 (_ bv1 32)))))
(assert (not (not (= symbol_785 (_ bv1 32)))))
(assert (not (not (= symbol_783 (_ bv1 32)))))
(assert (not (not (= symbol_781 (_ bv1 32)))))
(assert (not (not (= symbol_779 (_ bv1 32)))))
(assert (not (not (= symbol_777 (_ bv1 32)))))
(assert (not (not (= symbol_775 (_ bv1 32)))))
(assert (not (not (= symbol_774 (_ bv1 32)))))
(assert (not (not (= symbol_772 (_ bv1 32)))))
(assert (not (not (= symbol_770 (_ bv1 32)))))
(assert (not (not (= symbol_768 (_ bv1 32)))))
(assert (not (not (= symbol_765 (_ bv1 32)))))
(assert (not (not (= symbol_763 (_ bv1 32)))))
(assert (not (not (= symbol_761 (_ bv1 32)))))
(assert (not (not (= symbol_759 (_ bv1 32)))))
(assert (not (not (= symbol_757 (_ bv1 32)))))
(assert (not (not (= symbol_755 (_ bv1 32)))))
(assert (not (not (= symbol_753 (_ bv1 32)))))
(assert (not (not (= symbol_751 (_ bv1 32)))))
(assert (not (not (= symbol_749 (_ bv1 32)))))
(assert (not (not (= symbol_747 (_ bv1 32)))))
(assert (not (not (= symbol_745 (_ bv1 32)))))
(assert (not (not (= symbol_743 (_ bv1 32)))))
(assert (not (not (= symbol_741 (_ bv1 32)))))
(assert (not (not (= symbol_739 (_ bv1 32)))))
(assert (not (not (= symbol_737 (_ bv1 32)))))
(assert (not (not (= symbol_735 (_ bv1 32)))))
(assert (not (not (= symbol_733 (_ bv1 32)))))
(assert (not (not (= symbol_731 (_ bv1 32)))))
(assert (not (not (= symbol_729 (_ bv1 32)))))
(assert (not (not (= symbol_728 (_ bv1 32)))))
(assert (not (not (= symbol_726 (_ bv1 32)))))
(assert (not (not (= symbol_724 (_ bv1 32)))))
(assert (not (not (= symbol_722 (_ bv1 32)))))
(assert (not (not (= symbol_720 (_ bv1 32)))))
(assert (not (not (= symbol_718 (_ bv1 32)))))
(assert (not (not (= symbol_716 (_ bv1 32)))))
(assert (not (not (= symbol_714 (_ bv1 32)))))
(assert (not (not (= symbol_712 (_ bv1 32)))))
(assert (not (not (= symbol_710 (_ bv1 32)))))
(assert (not (not (= symbol_708 (_ bv1 32)))))
(assert (not (not (= symbol_706 (_ bv1 32)))))
(assert (not (not (= symbol_704 (_ bv1 32)))))
(assert (not (not (= symbol_702 (_ bv1 32)))))
(assert (not (not (= symbol_700 (_ bv1 32)))))
(assert (not (not (= symbol_698 (_ bv1 32)))))
(assert (not (not (= symbol_696 (_ bv1 32)))))
(assert (not (not (= symbol_694 (_ bv1 32)))))
(assert (not (not (= symbol_692 (_ bv1 32)))))
(assert (not (not (= symbol_690 (_ bv1 32)))))
(assert (not (not (= symbol_688 (_ bv1 32)))))
(assert (not (not (= symbol_686 (_ bv1 32)))))
(assert (not (not (= symbol_684 (_ bv1 32)))))
(assert (not (not (= symbol_682 (_ bv1 32)))))
(assert (not (not (= symbol_680 (_ bv1 32)))))
(assert (not (not (= symbol_678 (_ bv1 32)))))
(assert (not (not (= symbol_676 (_ bv1 32)))))
(assert (not (not (= symbol_674 (_ bv1 32)))))
(assert (not (not (= symbol_672 (_ bv1 32)))))
(assert (not (not (= symbol_670 (_ bv1 32)))))
(assert (not (not (= symbol_668 (_ bv1 32)))))
(assert (not (not (= symbol_666 (_ bv1 32)))))
(assert (not (not (= symbol_664 (_ bv1 32)))))
(assert (not (not (= symbol_662 (_ bv1 32)))))
(assert (not (not (= symbol_660 (_ bv1 32)))))
(assert (not (not (= symbol_658 (_ bv1 32)))))
(assert (not (not (= symbol_655 (_ bv1 32)))))
(assert (not (not (= symbol_654 (_ bv1 32)))))
(assert (not (not (= symbol_651 (_ bv1 32)))))
(assert (not (not (= symbol_649 (_ bv1 32)))))
(assert (not (not (= symbol_647 (_ bv1 32)))))
(assert (not (not (= symbol_645 (_ bv1 32)))))
(assert (not (not (= symbol_643 (_ bv1 32)))))
(assert (not (not (= symbol_641 (_ bv1 32)))))
(assert (not (not (= symbol_639 (_ bv1 32)))))
(assert (not (not (= symbol_637 (_ bv1 32)))))
(assert (not (not (= symbol_635 (_ bv1 32)))))
(assert (not (not (= symbol_633 (_ bv1 32)))))
(assert (not (not (= symbol_631 (_ bv1 32)))))
(assert (not (not (= symbol_629 (_ bv1 32)))))
(assert (not (not (= symbol_627 (_ bv1 32)))))
(assert (not (not (= symbol_625 (_ bv1 32)))))
(assert (not (not (= symbol_623 (_ bv1 32)))))
(assert (not (not (= symbol_621 (_ bv1 32)))))
(assert (not (not (= symbol_619 (_ bv1 32)))))
(assert (not (not (= symbol_617 (_ bv1 32)))))
(assert (not (not (= symbol_616 (_ bv1 32)))))
(assert (not (not (= symbol_614 (_ bv1 32)))))
(assert (not (not (= symbol_612 (_ bv1 32)))))
(assert (not (not (= symbol_610 (_ bv1 32)))))
(assert (not (not (= symbol_608 (_ bv1 32)))))
(assert (not (not (= symbol_606 (_ bv1 32)))))
(assert (not (not (= symbol_604 (_ bv1 32)))))
(assert (not (not (= symbol_601 (_ bv1 32)))))
(assert (not (not (= symbol_599 (_ bv1 32)))))
(assert (not (not (= symbol_597 (_ bv1 32)))))
(assert (not (not (= symbol_595 (_ bv1 32)))))
(assert (not (not (= symbol_593 (_ bv1 32)))))
(assert (not (not (= symbol_591 (_ bv1 32)))))
(assert (not (not (= symbol_589 (_ bv1 32)))))
(assert (not (not (= symbol_587 (_ bv1 32)))))
(assert (not (not (= symbol_585 (_ bv1 32)))))
(assert (not (not (= symbol_583 (_ bv1 32)))))
(assert (not (not (= symbol_581 (_ bv1 32)))))
(assert (not (not (= symbol_579 (_ bv1 32)))))
(assert (not (not (= symbol_577 (_ bv1 32)))))
(assert (not (not (= symbol_575 (_ bv1 32)))))
(assert (not (not (= symbol_573 (_ bv1 32)))))
(assert (not (not (= symbol_571 (_ bv1 32)))))
(assert (not (not (= symbol_569 (_ bv1 32)))))
(assert (not (not (= symbol_567 (_ bv1 32)))))
(assert (not (not (= symbol_565 (_ bv1 32)))))
(assert (not (not (= symbol_563 (_ bv1 32)))))
(assert (not (not (= symbol_561 (_ bv1 32)))))
(assert (not (not (= symbol_559 (_ bv1 32)))))
(assert (not (not (= symbol_557 (_ bv1 32)))))
(assert (not (not (= symbol_555 (_ bv1 32)))))
(assert (not (not (= symbol_553 (_ bv1 32)))))
(assert (not (not (= symbol_551 (_ bv1 32)))))
(assert (not (not (= symbol_550 (_ bv1 32)))))
(assert (not (not (= symbol_548 (_ bv1 32)))))
(assert (not (not (= symbol_546 (_ bv1 32)))))
(assert (not (not (= symbol_544 (_ bv1 32)))))
(assert (not (not (= symbol_542 (_ bv1 32)))))
(assert (not (not (= symbol_540 (_ bv1 32)))))
(assert (not (not (= symbol_538 (_ bv1 32)))))
(assert (not (not (= symbol_535 (_ bv1 32)))))
(assert (not (not (= symbol_533 (_ bv1 32)))))
(assert (not (not (= symbol_531 (_ bv1 32)))))
(assert (not (not (= symbol_529 (_ bv1 32)))))
(assert (not (not (= symbol_527 (_ bv1 32)))))
(assert (not (not (= symbol_526 (_ bv1 32)))))
(assert (not (not (= symbol_523 (_ bv1 32)))))
(assert (not (not (= symbol_521 (_ bv1 32)))))
(assert (not (not (= symbol_519 (_ bv1 32)))))
(assert (not (not (= symbol_517 (_ bv1 32)))))
(assert (not (not (= symbol_516 (_ bv1 32)))))
(assert (not (not (= symbol_514 (_ bv1 32)))))
(assert (not (not (= symbol_511 (_ bv1 32)))))
(assert (not (not (= symbol_509 (_ bv1 32)))))
(assert (not (not (= symbol_507 (_ bv1 32)))))
(assert (not (not (= symbol_505 (_ bv1 32)))))
(assert (not (not (= symbol_503 (_ bv1 32)))))
(assert (not (not (= symbol_501 (_ bv1 32)))))
(assert (not (not (= symbol_499 (_ bv1 32)))))
(assert (not (not (= symbol_497 (_ bv1 32)))))
(assert (not (not (= symbol_495 (_ bv1 32)))))
(assert (not (not (= symbol_493 (_ bv1 32)))))
(assert (not (not (= symbol_491 (_ bv1 32)))))
(assert (not (not (= symbol_489 (_ bv1 32)))))
(assert (not (not (= symbol_487 (_ bv1 32)))))
(assert (not (not (= symbol_485 (_ bv1 32)))))
(assert (not (not (= symbol_483 (_ bv1 32)))))
(assert (not (not (= symbol_481 (_ bv1 32)))))
(assert (not (not (= symbol_479 (_ bv1 32)))))
(assert (not (not (= symbol_477 (_ bv1 32)))))
(assert (not (not (= symbol_475 (_ bv1 32)))))
(assert (not (not (= symbol_473 (_ bv1 32)))))
(assert (not (not (= symbol_471 (_ bv1 32)))))
(assert (not (not (= symbol_469 (_ bv1 32)))))
(assert (not (not (= symbol_467 (_ bv1 32)))))
(assert (not (not (= symbol_465 (_ bv1 32)))))
(assert (not (not (= symbol_463 (_ bv1 32)))))
(assert (not (not (= symbol_461 (_ bv1 32)))))
(assert (not (not (= symbol_459 (_ bv1 32)))))
(assert (not (not (= symbol_457 (_ bv1 32)))))
(assert (not (not (= symbol_455 (_ bv1 32)))))
(assert (not (not (= symbol_453 (_ bv1 32)))))
(assert (not (not (= symbol_451 (_ bv1 32)))))
(assert (not (not (= symbol_449 (_ bv1 32)))))
(assert (not (not (= symbol_447 (_ bv1 32)))))
(assert (not (not (= symbol_445 (_ bv1 32)))))
(assert (not (not (= symbol_443 (_ bv1 32)))))
(assert (not (not (= symbol_441 (_ bv1 32)))))
(assert (not (not (= symbol_439 (_ bv1 32)))))
(assert (not (not (= symbol_437 (_ bv1 32)))))
(assert (not (not (= symbol_435 (_ bv1 32)))))
(assert (not (not (= symbol_434 (_ bv1 32)))))
(assert (not (not (= symbol_432 (_ bv1 32)))))
(assert (not (not (= symbol_430 (_ bv1 32)))))
(assert (not (not (= symbol_428 (_ bv1 32)))))
(assert (not (not (= symbol_426 (_ bv1 32)))))
(assert (not (not (= symbol_424 (_ bv1 32)))))
(assert (not (not (= symbol_422 (_ bv1 32)))))
(assert (not (not (= symbol_420 (_ bv1 32)))))
(assert (not (not (= symbol_418 (_ bv1 32)))))
(assert (not (not (= symbol_415 (_ bv1 32)))))
(assert (not (not (= symbol_413 (_ bv1 32)))))
(assert (not (not (= symbol_411 (_ bv1 32)))))
(assert (not (not (= symbol_409 (_ bv1 32)))))
(assert (not (not (= symbol_407 (_ bv1 32)))))
(assert (not (not (= symbol_405 (_ bv1 32)))))
(assert (not (not (= symbol_403 (_ bv1 32)))))
(assert (not (not (= symbol_401 (_ bv1 32)))))
(assert (not (not (= symbol_399 (_ bv1 32)))))
(assert (not (not (= symbol_397 (_ bv1 32)))))
(assert (not (not (= symbol_395 (_ bv1 32)))))
(assert (not (not (= symbol_393 (_ bv1 32)))))
(assert (not (not (= symbol_391 (_ bv1 32)))))
(assert (not (not (= symbol_389 (_ bv1 32)))))
(assert (not (not (= symbol_387 (_ bv1 32)))))
(assert (not (not (= symbol_385 (_ bv1 32)))))
(assert (not (not (= symbol_383 (_ bv1 32)))))
(assert (not (not (= symbol_381 (_ bv1 32)))))
(assert (not (not (= symbol_379 (_ bv1 32)))))
(assert (not (not (= symbol_377 (_ bv1 32)))))
(assert (not (not (= symbol_375 (_ bv1 32)))))
(assert (not (not (= symbol_374 (_ bv1 32)))))
(assert (not (not (= symbol_372 (_ bv1 32)))))
(assert (not (not (= symbol_370 (_ bv1 32)))))
(assert (not (not (= symbol_368 (_ bv1 32)))))
(assert (not (not (= symbol_366 (_ bv1 32)))))
(assert (not (not (= symbol_364 (_ bv1 32)))))
(assert (not (not (= symbol_362 (_ bv1 32)))))
(assert (not (not (= symbol_360 (_ bv1 32)))))
(assert (not (not (= symbol_358 (_ bv1 32)))))
(assert (not (not (= symbol_357 (_ bv1 32)))))
(assert (not (not (= symbol_355 (_ bv1 32)))))
(assert (not (not (= symbol_352 (_ bv1 32)))))
(assert (not (not (= symbol_351 (_ bv1 32)))))
(assert (not (not (= symbol_348 (_ bv1 32)))))
(assert (not (not (= symbol_346 (_ bv1 32)))))
(assert (not (not (= symbol_344 (_ bv1 32)))))
(assert (not (not (= symbol_342 (_ bv1 32)))))
(assert (not (not (= symbol_340 (_ bv1 32)))))
(assert (not (not (= symbol_338 (_ bv1 32)))))
(assert (not (not (= symbol_336 (_ bv1 32)))))
(assert (not (not (= symbol_334 (_ bv1 32)))))
(assert (not (not (= symbol_332 (_ bv1 32)))))
(assert (not (not (= symbol_330 (_ bv1 32)))))
(assert (not (not (= symbol_329 (_ bv1 32)))))
(assert (not (not (= symbol_327 (_ bv1 32)))))
(assert (not (not (= symbol_325 (_ bv1 32)))))
(assert (not (not (= symbol_322 (_ bv1 32)))))
(assert (not (not (= symbol_320 (_ bv1 32)))))
(assert (not (not (= symbol_318 (_ bv1 32)))))
(assert (not (not (= symbol_316 (_ bv1 32)))))
(assert (not (not (= symbol_314 (_ bv1 32)))))
(assert (not (not (= symbol_312 (_ bv1 32)))))
(assert (not (not (= symbol_310 (_ bv1 32)))))
(assert (not (not (= symbol_308 (_ bv1 32)))))
(assert (not (not (= symbol_306 (_ bv1 32)))))
(assert (not (not (= symbol_304 (_ bv1 32)))))
(assert (not (not (= symbol_302 (_ bv1 32)))))
(assert (not (not (= symbol_299 (_ bv1 32)))))
(assert (not (not (= symbol_297 (_ bv1 32)))))
(assert (not (not (= symbol_295 (_ bv1 32)))))
(assert (not (not (= symbol_293 (_ bv1 32)))))
(assert (not (not (= symbol_291 (_ bv1 32)))))
(assert (not (not (= symbol_289 (_ bv1 32)))))
(assert (not (not (= symbol_287 (_ bv1 32)))))
(assert (not (not (= symbol_284 (_ bv1 32)))))
(assert (not (not (= symbol_282 (_ bv1 32)))))
(assert (not (not (= symbol_280 (_ bv1 32)))))
(assert (not (not (= symbol_278 (_ bv1 32)))))
(assert (not (not (= symbol_276 (_ bv1 32)))))
(assert (not (not (= symbol_274 (_ bv1 32)))))
(assert (not (not (= symbol_272 (_ bv1 32)))))
(assert (not (not (= symbol_270 (_ bv1 32)))))
(assert (not (not (= symbol_268 (_ bv1 32)))))
(assert (not (not (= symbol_266 (_ bv1 32)))))
(assert (not (not (= symbol_264 (_ bv1 32)))))
(assert (not (not (= symbol_262 (_ bv1 32)))))
(assert (not (not (= symbol_260 (_ bv1 32)))))
(assert (not (not (= symbol_258 (_ bv1 32)))))
(assert (not (not (= symbol_256 (_ bv1 32)))))
(assert (not (not (= symbol_254 (_ bv1 32)))))
(assert (not (not (= symbol_252 (_ bv1 32)))))
(assert (not (not (= symbol_251 (_ bv1 32)))))
(assert (not (not (= symbol_249 (_ bv1 32)))))
(assert (not (not (= symbol_247 (_ bv1 32)))))
(assert (not (not (= symbol_245 (_ bv1 32)))))
(assert (not (not (= symbol_243 (_ bv1 32)))))
(assert (not (not (= symbol_241 (_ bv1 32)))))
(assert (not (not (= symbol_239 (_ bv1 32)))))
(assert (not (not (= symbol_237 (_ bv1 32)))))
(assert (not (not (= symbol_235 (_ bv1 32)))))
(assert (not (not (= symbol_233 (_ bv1 32)))))
(assert (not (not (= symbol_231 (_ bv1 32)))))
(assert (not (not (= symbol_229 (_ bv1 32)))))
(assert (not (not (= symbol_227 (_ bv1 32)))))
(assert (not (not (= symbol_226 (_ bv1 32)))))
(assert (not (not (= symbol_224 (_ bv1 32)))))
(assert (not (not (= symbol_222 (_ bv1 32)))))
(assert (not (not (= symbol_220 (_ bv1 32)))))
(assert (not (not (= symbol_218 (_ bv1 32)))))
(assert (not (not (= symbol_217 (_ bv1 32)))))
(assert (not (not (= symbol_215 (_ bv1 32)))))
(assert (not (not (= symbol_213 (_ bv1 32)))))
(assert (not (not (= symbol_211 (_ bv1 32)))))
(assert (not (not (= symbol_209 (_ bv1 32)))))
(assert (not (not (= symbol_207 (_ bv1 32)))))
(assert (not (not (= symbol_205 (_ bv1 32)))))
(assert (not (not (= symbol_203 (_ bv1 32)))))
(assert (not (not (= symbol_201 (_ bv1 32)))))
(assert (not (not (= symbol_199 (_ bv1 32)))))
(assert (not (not (= symbol_197 (_ bv1 32)))))
(assert (not (not (= symbol_195 (_ bv1 32)))))
(assert (not (not (= symbol_193 (_ bv1 32)))))
(assert (not (not (= symbol_191 (_ bv1 32)))))
(assert (not (not (= symbol_188 (_ bv1 32)))))
(assert (not (not (= symbol_186 (_ bv1 32)))))
(assert (not (not (= symbol_184 (_ bv1 32)))))
(assert (not (not (= symbol_182 (_ bv1 32)))))
(assert (not (not (= symbol_180 (_ bv1 32)))))
(assert (not (not (= symbol_178 (_ bv1 32)))))
(assert (not (not (= symbol_175 (_ bv1 32)))))
(assert (not (not (= symbol_173 (_ bv1 32)))))
(assert (not (not (= symbol_171 (_ bv1 32)))))
(assert (not (not (= symbol_169 (_ bv1 32)))))
(assert (not (not (= symbol_167 (_ bv1 32)))))
(assert (not (not (= symbol_165 (_ bv1 32)))))
(assert (not (not (= symbol_163 (_ bv1 32)))))
(assert (not (not (= symbol_161 (_ bv1 32)))))
(assert (not (not (= symbol_159 (_ bv1 32)))))
(assert (not (not (= symbol_157 (_ bv1 32)))))
(assert (not (not (= symbol_155 (_ bv1 32)))))
(assert (not (not (= symbol_153 (_ bv1 32)))))
(assert (not (not (= symbol_151 (_ bv1 32)))))
(assert (not (not (= symbol_149 (_ bv1 32)))))
(assert (not (not (= symbol_147 (_ bv1 32)))))
(assert (not (not (= symbol_145 (_ bv1 32)))))
(assert (not (not (= symbol_144 (_ bv1 32)))))
(assert (not (not (= symbol_142 (_ bv1 32)))))
(assert (not (not (= symbol_140 (_ bv1 32)))))
(assert (not (not (= symbol_138 (_ bv1 32)))))
(assert (not (not (= symbol_136 (_ bv1 32)))))
(assert (not (not (= symbol_134 (_ bv1 32)))))
(assert (not (not (= symbol_132 (_ bv1 32)))))
(assert (not (not (= symbol_130 (_ bv1 32)))))
(assert (not (not (= symbol_128 (_ bv1 32)))))
(assert (not (not (= symbol_126 (_ bv1 32)))))
(assert (not (not (= symbol_124 (_ bv1 32)))))
(assert (not (not (= symbol_123 (_ bv1 32)))))
(assert (not (not (= symbol_121 (_ bv1 32)))))
(assert (not (not (= symbol_119 (_ bv1 32)))))
(assert (not (not (= symbol_117 (_ bv1 32)))))
(assert (not (not (= symbol_115 (_ bv1 32)))))
(assert (not (not (= symbol_113 (_ bv1 32)))))
(assert (not (not (= symbol_111 (_ bv1 32)))))
(assert (not (not (= symbol_109 (_ bv1 32)))))
(assert (not (not (= symbol_107 (_ bv1 32)))))
(assert (not (not (= symbol_105 (_ bv1 32)))))
(assert (not (not (= symbol_103 (_ bv1 32)))))
(assert (not (not (= symbol_101 (_ bv1 32)))))
(assert (not (not (= symbol_99 (_ bv1 32)))))
(assert (not (not (= symbol_97 (_ bv1 32)))))
(assert (not (not (= symbol_95 (_ bv1 32)))))
(assert (not (not (= symbol_93 (_ bv1 32)))))
(assert (not (not (= symbol_91 (_ bv1 32)))))
(assert (not (not (= symbol_88 (_ bv1 32)))))
(assert (not (not (= symbol_87 (_ bv1 32)))))
(assert (not (not (= symbol_85 (_ bv1 32)))))
(assert (not (not (= symbol_83 (_ bv1 32)))))
(assert (not (not (= symbol_81 (_ bv1 32)))))
(assert (not (not (= symbol_79 (_ bv1 32)))))
(assert (not (not (= symbol_77 (_ bv1 32)))))
(assert (not (not (= symbol_74 (_ bv1 32)))))
(assert (not (not (= symbol_72 (_ bv1 32)))))
(assert (not (not (= symbol_71 (_ bv1 32)))))
(assert (not (not (= symbol_68 (_ bv1 32)))))
(assert (not (not (= symbol_66 (_ bv1 32)))))
(assert (not (not (= symbol_64 (_ bv1 32)))))
(assert (not (not (= symbol_62 (_ bv1 32)))))
(assert (not (not (= symbol_59 (_ bv1 32)))))
(assert (not (not (= symbol_58 (_ bv1 32)))))
(assert (not (not (= symbol_55 (_ bv1 32)))))
(assert (not (not (= symbol_54 (_ bv1 32)))))
(assert (not (not (= symbol_51 (_ bv1 32)))))
(assert (not (not (= symbol_49 (_ bv1 32)))))
(assert (not (not (= symbol_48 (_ bv1 32)))))
(assert (not (not (= symbol_46 (_ bv1 32)))))
(assert (not (not (= symbol_43 (_ bv1 32)))))
(assert (not (not (= symbol_41 (_ bv1 32)))))
(assert (not (not (= symbol_38 (_ bv1 32)))))
(assert (not (not (= symbol_37 (_ bv1 32)))))
(assert (not (not (= symbol_35 (_ bv1 32)))))
(assert (not (not (= symbol_33 (_ bv1 32)))))
(assert (not (not (= symbol_31 (_ bv1 32)))))
(assert (not (not (= symbol_29 (_ bv1 32)))))
(assert (not (not (= symbol_27 (_ bv1 32)))))
(assert (not (not (= symbol_25 (_ bv1 32)))))
(assert (not (not (= symbol_23 (_ bv1 32)))))
(assert (not (not (= symbol_21 (_ bv1 32)))))
(assert (not (not (= symbol_19 (_ bv1 32)))))
(assert (not (not (= symbol_17 (_ bv1 32)))))
(assert (not (not (= symbol_15 (_ bv1 32)))))
(assert (not (not (= symbol_13 (_ bv1 32)))))
(assert (not (not (= symbol_11 (_ bv1 32)))))
(assert (not (not (= symbol_9 (_ bv1 32)))))
(assert (not (not (= symbol_7 (_ bv1 32)))))
(assert (not (not (= symbol_5 (_ bv1 32)))))
(assert (not (not (= symbol_4 (_ bv1 32)))))
(assert (not (not (= symbol_2 (_ bv1 32)))))
(assert (not (not (= symbol_0 (_ bv8 32)))))
(assert (not (= symbol_0 (_ bv1 32))))
(check-sat)